<instance format="XCSP3" type="COP">
  <variables>
    <var id="x" note="x is the number of unused bins"> 0..24 </var>
    <array id="b" note="b[i][j] indicates the weight of the jth object put in the ith bin. It is 0 if there is no object at this place." size="[24][3]"> 0 250..255 257..259 261 263 267 270 273 276 279 282 286..288 292 298 303 305 316 324 329 342 343 350 358 361 363 366..368 382 384 391 395 405 407 415 423 427 459 460 470 488 493 499 </array>
  </variables>
  <constraints>
    <group>
      <mdd>
        <list> %... </list>
        <transitions> (root,0,n3)(root,250,n3)(root,251,n5)(root,252,n7)(root,253,n9)(root,254,n11)(root,255,n13)(root,257,n15)(root,258,n17)(root,259,n19)(root,261,n21)(root,263,n23)(root,267,n25)(root,270,n26)(root,273,n28)(root,276,n30)(root,279,n32)(root,282,n34)(root,286,n36)(root,287,n38)(root,288,n40)(root,292,n42)(root,298,n44)(root,303,n46)(root,305,n48)(root,316,n50)(root,324,n52)(root,329,n54)(root,342,n56)(root,343,n58)(root,350,n59)(root,358,n60)(root,361,n61)(root,363,n62)(root,366,n63)(root,367,n64)(root,368,n65)(root,382,n66)(root,384,n67)(root,391,n68)(root,395,n69)(root,405,n70)(root,407,n71)(root,415,n72)(root,423,n73)(root,427,n74)(root,459,n75)(root,460,n76)(root,470,n77)(root,488,n78)(root,493,n79)(root,499,n80)(n3,0,n4)(n4,0,nodeT)(n5,0,n4)(n5,250,n4)(n5,251,n6)(n6,0,nodeT)(n6,250,nodeT)(n7,0,n4)(n7,250,n4)(n7,251,n8)(n8,0,nodeT)(n8,250,nodeT)(n8,251,nodeT)(n9,0,n4)(n9,250,n4)(n9,251,n8)(n9,252,n8)(n9,253,n10)(n10,0,nodeT)(n10,250,nodeT)(n10,251,nodeT)(n10,252,nodeT)(n11,0,n4)(n11,250,n4)(n11,251,n8)(n11,252,n8)(n11,253,n12)(n11,254,n12)(n12,0,nodeT)(n12,250,nodeT)(n12,251,nodeT)(n12,252,nodeT)(n12,253,nodeT)(n13,0,n4)(n13,250,n4)(n13,251,n8)(n13,252,n8)(n13,253,n12)(n13,254,n14)(n14,0,nodeT)(n14,250,nodeT)(n14,251,nodeT)(n14,252,nodeT)(n14,253,nodeT)(n14,254,nodeT)(n15,0,n4)(n15,250,n4)(n15,251,n8)(n15,252,n8)(n15,253,n12)(n15,254,n14)(n15,255,n14)(n15,257,n16)(n16,0,nodeT)(n16,250,nodeT)(n16,251,nodeT)(n16,252,nodeT)(n16,253,nodeT)(n16,254,nodeT)(n16,255,nodeT)(n17,0,n4)(n17,250,n4)(n17,251,n8)(n17,252,n8)(n17,253,n12)(n17,254,n14)(n17,255,n14)(n17,257,n18)(n18,0,nodeT)(n18,250,nodeT)(n18,251,nodeT)(n18,252,nodeT)(n18,253,nodeT)(n18,254,nodeT)(n18,255,nodeT)(n18,257,nodeT)(n19,0,n4)(n19,250,n4)(n19,251,n8)(n19,252,n8)(n19,253,n12)(n19,254,n14)(n19,255,n14)(n19,257,n18)(n19,258,n18)(n19,259,n20)(n20,0,nodeT)(n20,250,nodeT)(n20,251,nodeT)(n20,252,nodeT)(n20,253,nodeT)(n20,254,nodeT)(n20,255,nodeT)(n20,257,nodeT)(n20,258,nodeT)(n21,0,n4)(n21,250,n4)(n21,251,n8)(n21,252,n8)(n21,253,n12)(n21,254,n14)(n21,255,n14)(n21,257,n18)(n21,258,n18)(n21,259,n22)(n21,261,n22)(n22,0,nodeT)(n22,250,nodeT)(n22,251,nodeT)(n22,252,nodeT)(n22,253,nodeT)(n22,254,nodeT)(n22,255,nodeT)(n22,257,nodeT)(n22,258,nodeT)(n22,259,nodeT)(n23,0,n4)(n23,250,n4)(n23,251,n8)(n23,252,n8)(n23,253,n12)(n23,254,n14)(n23,255,n14)(n23,257,n18)(n23,258,n18)(n23,259,n22)(n23,261,n24)(n24,0,nodeT)(n24,250,nodeT)(n24,251,nodeT)(n24,252,nodeT)(n24,253,nodeT)(n24,254,nodeT)(n24,255,nodeT)(n24,257,nodeT)(n24,258,nodeT)(n24,259,nodeT)(n24,261,nodeT)(n25,0,n4)(n25,250,n4)(n25,251,n8)(n25,252,n8)(n25,253,n12)(n25,254,n14)(n25,255,n14)(n25,257,n18)(n25,258,n18)(n25,259,n22)(n25,261,n24)(n25,263,n24)(n26,0,n4)(n26,250,n4)(n26,251,n8)(n26,252,n8)(n26,253,n12)(n26,254,n14)(n26,255,n14)(n26,257,n18)(n26,258,n18)(n26,259,n22)(n26,261,n24)(n26,263,n24)(n26,267,n27)(n27,0,nodeT)(n27,250,nodeT)(n27,251,nodeT)(n27,252,nodeT)(n27,253,nodeT)(n27,254,nodeT)(n27,255,nodeT)(n27,257,nodeT)(n27,258,nodeT)(n27,259,nodeT)(n27,261,nodeT)(n27,263,nodeT)(n28,0,n4)(n28,250,n4)(n28,251,n8)(n28,252,n8)(n28,253,n12)(n28,254,n14)(n28,255,n14)(n28,257,n18)(n28,258,n18)(n28,259,n22)(n28,261,n24)(n28,263,n24)(n28,267,n27)(n28,270,n29)(n29,0,nodeT)(n29,250,nodeT)(n29,251,nodeT)(n29,252,nodeT)(n29,253,nodeT)(n29,254,nodeT)(n29,255,nodeT)(n29,257,nodeT)(n29,258,nodeT)(n29,259,nodeT)(n29,261,nodeT)(n29,263,nodeT)(n29,267,nodeT)(n30,0,n4)(n30,250,n4)(n30,251,n8)(n30,252,n8)(n30,253,n12)(n30,254,n14)(n30,255,n14)(n30,257,n18)(n30,258,n18)(n30,259,n22)(n30,261,n24)(n30,263,n24)(n30,267,n27)(n30,270,n29)(n30,273,n31)(n31,0,nodeT)(n31,250,nodeT)(n31,251,nodeT)(n31,252,nodeT)(n31,253,nodeT)(n31,254,nodeT)(n31,255,nodeT)(n31,257,nodeT)(n31,258,nodeT)(n31,259,nodeT)(n31,261,nodeT)(n31,263,nodeT)(n31,267,nodeT)(n31,270,nodeT)(n32,0,n4)(n32,250,n4)(n32,251,n8)(n32,252,n8)(n32,253,n12)(n32,254,n14)(n32,255,n14)(n32,257,n18)(n32,258,n18)(n32,259,n22)(n32,261,n24)(n32,263,n24)(n32,267,n27)(n32,270,n29)(n32,273,n31)(n32,276,n33)(n33,0,nodeT)(n33,250,nodeT)(n33,251,nodeT)(n33,252,nodeT)(n33,253,nodeT)(n33,254,nodeT)(n33,255,nodeT)(n33,257,nodeT)(n33,258,nodeT)(n33,259,nodeT)(n33,261,nodeT)(n33,263,nodeT)(n33,267,nodeT)(n33,270,nodeT)(n33,273,nodeT)(n34,0,n4)(n34,250,n4)(n34,251,n8)(n34,252,n8)(n34,253,n12)(n34,254,n14)(n34,255,n14)(n34,257,n18)(n34,258,n18)(n34,259,n22)(n34,261,n24)(n34,263,n24)(n34,267,n27)(n34,270,n29)(n34,273,n31)(n34,276,n33)(n34,279,n35)(n35,0,nodeT)(n35,250,nodeT)(n35,251,nodeT)(n35,252,nodeT)(n35,253,nodeT)(n35,254,nodeT)(n35,255,nodeT)(n35,257,nodeT)(n35,258,nodeT)(n35,259,nodeT)(n35,261,nodeT)(n35,263,nodeT)(n35,267,nodeT)(n35,270,nodeT)(n35,273,nodeT)(n35,276,nodeT)(n36,0,n4)(n36,250,n4)(n36,251,n8)(n36,252,n8)(n36,253,n12)(n36,254,n14)(n36,255,n14)(n36,257,n18)(n36,258,n18)(n36,259,n22)(n36,261,n24)(n36,263,n24)(n36,267,n27)(n36,270,n29)(n36,273,n31)(n36,276,n33)(n36,279,n35)(n36,282,n37)(n37,0,nodeT)(n37,250,nodeT)(n37,251,nodeT)(n37,252,nodeT)(n37,253,nodeT)(n37,254,nodeT)(n37,255,nodeT)(n37,257,nodeT)(n37,258,nodeT)(n37,259,nodeT)(n37,261,nodeT)(n37,263,nodeT)(n37,267,nodeT)(n37,270,nodeT)(n37,273,nodeT)(n37,276,nodeT)(n37,279,nodeT)(n38,0,n4)(n38,250,n4)(n38,251,n8)(n38,252,n8)(n38,253,n12)(n38,254,n14)(n38,255,n14)(n38,257,n18)(n38,258,n18)(n38,259,n22)(n38,261,n24)(n38,263,n24)(n38,267,n27)(n38,270,n29)(n38,273,n31)(n38,276,n33)(n38,279,n35)(n38,282,n37)(n38,286,n39)(n39,0,nodeT)(n39,250,nodeT)(n39,251,nodeT)(n39,252,nodeT)(n39,253,nodeT)(n39,254,nodeT)(n39,255,nodeT)(n39,257,nodeT)(n39,258,nodeT)(n39,259,nodeT)(n39,261,nodeT)(n39,263,nodeT)(n39,267,nodeT)(n39,270,nodeT)(n39,273,nodeT)(n39,276,nodeT)(n39,279,nodeT)(n39,282,nodeT)(n40,0,n4)(n40,250,n4)(n40,251,n8)(n40,252,n8)(n40,253,n12)(n40,254,n14)(n40,255,n14)(n40,257,n18)(n40,258,n18)(n40,259,n22)(n40,261,n24)(n40,263,n24)(n40,267,n27)(n40,270,n29)(n40,273,n31)(n40,276,n33)(n40,279,n35)(n40,282,n37)(n40,286,n39)(n40,287,n41)(n41,0,nodeT)(n41,250,nodeT)(n41,251,nodeT)(n41,252,nodeT)(n41,253,nodeT)(n41,254,nodeT)(n41,255,nodeT)(n41,257,nodeT)(n41,258,nodeT)(n41,259,nodeT)(n41,261,nodeT)(n41,263,nodeT)(n41,267,nodeT)(n41,270,nodeT)(n41,273,nodeT)(n41,276,nodeT)(n41,279,nodeT)(n41,282,nodeT)(n41,286,nodeT)(n42,0,n4)(n42,250,n4)(n42,251,n8)(n42,252,n8)(n42,253,n12)(n42,254,n14)(n42,255,n14)(n42,257,n18)(n42,258,n18)(n42,259,n22)(n42,261,n24)(n42,263,n24)(n42,267,n27)(n42,270,n29)(n42,273,n31)(n42,276,n33)(n42,279,n35)(n42,282,n37)(n42,286,n39)(n42,287,n41)(n42,288,n43)(n43,0,nodeT)(n43,250,nodeT)(n43,251,nodeT)(n43,252,nodeT)(n43,253,nodeT)(n43,254,nodeT)(n43,255,nodeT)(n43,257,nodeT)(n43,258,nodeT)(n43,259,nodeT)(n43,261,nodeT)(n43,263,nodeT)(n43,267,nodeT)(n43,270,nodeT)(n43,273,nodeT)(n43,276,nodeT)(n43,279,nodeT)(n43,282,nodeT)(n43,286,nodeT)(n43,287,nodeT)(n44,0,n4)(n44,250,n4)(n44,251,n8)(n44,252,n8)(n44,253,n12)(n44,254,n14)(n44,255,n14)(n44,257,n18)(n44,258,n18)(n44,259,n22)(n44,261,n24)(n44,263,n24)(n44,267,n27)(n44,270,n29)(n44,273,n31)(n44,276,n33)(n44,279,n35)(n44,282,n37)(n44,286,n39)(n44,287,n41)(n44,288,n43)(n44,292,n45)(n45,0,nodeT)(n45,250,nodeT)(n45,251,nodeT)(n45,252,nodeT)(n45,253,nodeT)(n45,254,nodeT)(n45,255,nodeT)(n45,257,nodeT)(n45,258,nodeT)(n45,259,nodeT)(n45,261,nodeT)(n45,263,nodeT)(n45,267,nodeT)(n45,270,nodeT)(n45,273,nodeT)(n45,276,nodeT)(n45,279,nodeT)(n45,282,nodeT)(n45,286,nodeT)(n45,287,nodeT)(n45,288,nodeT)(n46,0,n4)(n46,250,n4)(n46,251,n8)(n46,252,n8)(n46,253,n12)(n46,254,n14)(n46,255,n14)(n46,257,n18)(n46,258,n18)(n46,259,n22)(n46,261,n24)(n46,263,n24)(n46,267,n27)(n46,270,n29)(n46,273,n31)(n46,276,n33)(n46,279,n35)(n46,282,n37)(n46,286,n39)(n46,287,n41)(n46,288,n43)(n46,292,n45)(n46,298,n47)(n47,0,nodeT)(n47,250,nodeT)(n47,251,nodeT)(n47,252,nodeT)(n47,253,nodeT)(n47,254,nodeT)(n47,255,nodeT)(n47,257,nodeT)(n47,258,nodeT)(n47,259,nodeT)(n47,261,nodeT)(n47,263,nodeT)(n47,267,nodeT)(n47,270,nodeT)(n47,273,nodeT)(n47,276,nodeT)(n47,279,nodeT)(n47,282,nodeT)(n47,286,nodeT)(n47,287,nodeT)(n47,288,nodeT)(n47,292,nodeT)(n48,0,n4)(n48,250,n4)(n48,251,n8)(n48,252,n8)(n48,253,n12)(n48,254,n14)(n48,255,n14)(n48,257,n18)(n48,258,n18)(n48,259,n22)(n48,261,n24)(n48,263,n24)(n48,267,n27)(n48,270,n29)(n48,273,n31)(n48,276,n33)(n48,279,n35)(n48,282,n37)(n48,286,n39)(n48,287,n41)(n48,288,n43)(n48,292,n45)(n48,298,n47)(n48,303,n49)(n49,0,nodeT)(n49,250,nodeT)(n49,251,nodeT)(n49,252,nodeT)(n49,253,nodeT)(n49,254,nodeT)(n49,255,nodeT)(n49,257,nodeT)(n49,258,nodeT)(n49,259,nodeT)(n49,261,nodeT)(n49,263,nodeT)(n49,267,nodeT)(n49,270,nodeT)(n49,273,nodeT)(n49,276,nodeT)(n49,279,nodeT)(n49,282,nodeT)(n49,286,nodeT)(n49,287,nodeT)(n49,288,nodeT)(n49,292,nodeT)(n49,298,nodeT)(n50,0,n4)(n50,250,n4)(n50,251,n8)(n50,252,n8)(n50,253,n12)(n50,254,n14)(n50,255,n14)(n50,257,n18)(n50,258,n18)(n50,259,n22)(n50,261,n24)(n50,263,n24)(n50,267,n27)(n50,270,n29)(n50,273,n31)(n50,276,n33)(n50,279,n35)(n50,282,n37)(n50,286,n39)(n50,287,n41)(n50,288,n43)(n50,292,n45)(n50,298,n47)(n50,303,n49)(n50,305,n51)(n51,0,nodeT)(n51,250,nodeT)(n51,251,nodeT)(n51,252,nodeT)(n51,253,nodeT)(n51,254,nodeT)(n51,255,nodeT)(n51,257,nodeT)(n51,258,nodeT)(n51,259,nodeT)(n51,261,nodeT)(n51,263,nodeT)(n51,267,nodeT)(n51,270,nodeT)(n51,273,nodeT)(n51,276,nodeT)(n51,279,nodeT)(n51,282,nodeT)(n51,286,nodeT)(n51,287,nodeT)(n51,288,nodeT)(n51,292,nodeT)(n51,298,nodeT)(n51,303,nodeT)(n52,0,n4)(n52,250,n4)(n52,251,n8)(n52,252,n8)(n52,253,n12)(n52,254,n14)(n52,255,n14)(n52,257,n18)(n52,258,n18)(n52,259,n22)(n52,261,n24)(n52,263,n24)(n52,267,n27)(n52,270,n29)(n52,273,n31)(n52,276,n33)(n52,279,n35)(n52,282,n37)(n52,286,n39)(n52,287,n41)(n52,288,n43)(n52,292,n45)(n52,298,n47)(n52,303,n49)(n52,305,n51)(n52,316,n53)(n53,0,nodeT)(n53,250,nodeT)(n53,251,nodeT)(n53,252,nodeT)(n53,253,nodeT)(n53,254,nodeT)(n53,255,nodeT)(n53,257,nodeT)(n53,258,nodeT)(n53,259,nodeT)(n53,261,nodeT)(n53,263,nodeT)(n53,267,nodeT)(n53,270,nodeT)(n53,273,nodeT)(n53,276,nodeT)(n53,279,nodeT)(n53,282,nodeT)(n53,286,nodeT)(n53,287,nodeT)(n53,288,nodeT)(n53,292,nodeT)(n53,298,nodeT)(n53,303,nodeT)(n53,305,nodeT)(n54,0,n4)(n54,250,n4)(n54,251,n8)(n54,252,n8)(n54,253,n12)(n54,254,n14)(n54,255,n14)(n54,257,n18)(n54,258,n18)(n54,259,n22)(n54,261,n24)(n54,263,n24)(n54,267,n27)(n54,270,n29)(n54,273,n31)(n54,276,n33)(n54,279,n35)(n54,282,n37)(n54,286,n39)(n54,287,n41)(n54,288,n43)(n54,292,n45)(n54,298,n47)(n54,303,n49)(n54,305,n51)(n54,316,n53)(n54,324,n55)(n55,0,nodeT)(n55,250,nodeT)(n55,251,nodeT)(n55,252,nodeT)(n55,253,nodeT)(n55,254,nodeT)(n55,255,nodeT)(n55,257,nodeT)(n55,258,nodeT)(n55,259,nodeT)(n55,261,nodeT)(n55,263,nodeT)(n55,267,nodeT)(n55,270,nodeT)(n55,273,nodeT)(n55,276,nodeT)(n55,279,nodeT)(n55,282,nodeT)(n55,286,nodeT)(n55,287,nodeT)(n55,288,nodeT)(n55,292,nodeT)(n55,298,nodeT)(n55,303,nodeT)(n55,305,nodeT)(n55,316,nodeT)(n56,0,n4)(n56,250,n4)(n56,251,n8)(n56,252,n8)(n56,253,n12)(n56,254,n14)(n56,255,n14)(n56,257,n18)(n56,258,n18)(n56,259,n22)(n56,261,n24)(n56,263,n24)(n56,267,n27)(n56,270,n29)(n56,273,n31)(n56,276,n33)(n56,279,n35)(n56,282,n37)(n56,286,n39)(n56,287,n41)(n56,288,n43)(n56,292,n45)(n56,298,n47)(n56,303,n49)(n56,305,n51)(n56,316,n53)(n56,324,n55)(n56,329,n57)(n56,342,n55)(n57,0,nodeT)(n57,250,nodeT)(n57,251,nodeT)(n57,252,nodeT)(n57,253,nodeT)(n57,254,nodeT)(n57,255,nodeT)(n57,257,nodeT)(n57,258,nodeT)(n57,259,nodeT)(n57,261,nodeT)(n57,263,nodeT)(n57,267,nodeT)(n57,270,nodeT)(n57,273,nodeT)(n57,276,nodeT)(n57,279,nodeT)(n57,282,nodeT)(n57,286,nodeT)(n57,287,nodeT)(n57,288,nodeT)(n57,292,nodeT)(n57,298,nodeT)(n57,303,nodeT)(n57,305,nodeT)(n57,316,nodeT)(n57,324,nodeT)(n58,0,n4)(n58,250,n4)(n58,251,n8)(n58,252,n8)(n58,253,n12)(n58,254,n14)(n58,255,n14)(n58,257,n18)(n58,258,n18)(n58,259,n22)(n58,261,n24)(n58,263,n24)(n58,267,n27)(n58,270,n29)(n58,273,n31)(n58,276,n33)(n58,279,n35)(n58,282,n37)(n58,286,n39)(n58,287,n41)(n58,288,n43)(n58,292,n45)(n58,298,n47)(n58,303,n49)(n58,305,n51)(n58,316,n53)(n58,324,n55)(n58,329,n57)(n58,342,n53)(n59,0,n4)(n59,250,n4)(n59,251,n8)(n59,252,n8)(n59,253,n12)(n59,254,n14)(n59,255,n14)(n59,257,n18)(n59,258,n18)(n59,259,n22)(n59,261,n24)(n59,263,n24)(n59,267,n27)(n59,270,n29)(n59,273,n31)(n59,276,n33)(n59,279,n35)(n59,282,n37)(n59,286,n39)(n59,287,n41)(n59,288,n43)(n59,292,n45)(n59,298,n47)(n59,303,n49)(n59,305,n51)(n59,316,n53)(n59,324,n55)(n59,329,n55)(n59,342,n53)(n59,343,n53)(n60,0,n4)(n60,250,n4)(n60,251,n8)(n60,252,n8)(n60,253,n12)(n60,254,n14)(n60,255,n14)(n60,257,n18)(n60,258,n18)(n60,259,n22)(n60,261,n24)(n60,263,n24)(n60,267,n27)(n60,270,n29)(n60,273,n31)(n60,276,n33)(n60,279,n35)(n60,282,n37)(n60,286,n39)(n60,287,n41)(n60,288,n43)(n60,292,n45)(n60,298,n47)(n60,303,n49)(n60,305,n51)(n60,316,n53)(n60,324,n55)(n60,329,n53)(n60,342,n49)(n60,343,n49)(n60,350,n47)(n61,0,n4)(n61,250,n4)(n61,251,n8)(n61,252,n8)(n61,253,n12)(n61,254,n14)(n61,255,n14)(n61,257,n18)(n61,258,n18)(n61,259,n22)(n61,261,n24)(n61,263,n24)(n61,267,n27)(n61,270,n29)(n61,273,n31)(n61,276,n33)(n61,279,n35)(n61,282,n37)(n61,286,n39)(n61,287,n41)(n61,288,n43)(n61,292,n45)(n61,298,n47)(n61,303,n49)(n61,305,n51)(n61,316,n53)(n61,324,n53)(n61,329,n53)(n61,342,n47)(n61,343,n47)(n61,350,n45)(n61,358,n37)(n62,0,n4)(n62,250,n4)(n62,251,n8)(n62,252,n8)(n62,253,n12)(n62,254,n14)(n62,255,n14)(n62,257,n18)(n62,258,n18)(n62,259,n22)(n62,261,n24)(n62,263,n24)(n62,267,n27)(n62,270,n29)(n62,273,n31)(n62,276,n33)(n62,279,n35)(n62,282,n37)(n62,286,n39)(n62,287,n41)(n62,288,n43)(n62,292,n45)(n62,298,n47)(n62,303,n49)(n62,305,n51)(n62,316,n53)(n62,324,n53)(n62,329,n53)(n62,342,n47)(n62,343,n47)(n62,350,n43)(n62,358,n37)(n62,361,n35)(n63,0,n4)(n63,250,n4)(n63,251,n8)(n63,252,n8)(n63,253,n12)(n63,254,n14)(n63,255,n14)(n63,257,n18)(n63,258,n18)(n63,259,n22)(n63,261,n24)(n63,263,n24)(n63,267,n27)(n63,270,n29)(n63,273,n31)(n63,276,n33)(n63,279,n35)(n63,282,n37)(n63,286,n39)(n63,287,n41)(n63,288,n43)(n63,292,n45)(n63,298,n47)(n63,303,n49)(n63,305,n51)(n63,316,n53)(n63,324,n53)(n63,329,n53)(n63,342,n47)(n63,343,n45)(n63,350,n39)(n63,358,n35)(n63,361,n33)(n63,363,n31)(n64,0,n4)(n64,250,n4)(n64,251,n8)(n64,252,n8)(n64,253,n12)(n64,254,n14)(n64,255,n14)(n64,257,n18)(n64,258,n18)(n64,259,n22)(n64,261,n24)(n64,263,n24)(n64,267,n27)(n64,270,n29)(n64,273,n31)(n64,276,n33)(n64,279,n35)(n64,282,n37)(n64,286,n39)(n64,287,n41)(n64,288,n43)(n64,292,n45)(n64,298,n47)(n64,303,n49)(n64,305,n51)(n64,316,n53)(n64,324,n53)(n64,329,n51)(n64,342,n45)(n64,343,n45)(n64,350,n39)(n64,358,n33)(n64,361,n31)(n64,363,n31)(n64,366,n29)(n65,0,n4)(n65,250,n4)(n65,251,n8)(n65,252,n8)(n65,253,n12)(n65,254,n14)(n65,255,n14)(n65,257,n18)(n65,258,n18)(n65,259,n22)(n65,261,n24)(n65,263,n24)(n65,267,n27)(n65,270,n29)(n65,273,n31)(n65,276,n33)(n65,279,n35)(n65,282,n37)(n65,286,n39)(n65,287,n41)(n65,288,n43)(n65,292,n45)(n65,298,n47)(n65,303,n49)(n65,305,n51)(n65,316,n53)(n65,324,n53)(n65,329,n51)(n65,342,n45)(n65,343,n45)(n65,350,n39)(n65,358,n33)(n65,361,n31)(n65,363,n29)(n65,366,n27)(n65,367,n27)(n66,0,n4)(n66,250,n4)(n66,251,n8)(n66,252,n8)(n66,253,n12)(n66,254,n14)(n66,255,n14)(n66,257,n18)(n66,258,n18)(n66,259,n22)(n66,261,n24)(n66,263,n24)(n66,267,n27)(n66,270,n29)(n66,273,n31)(n66,276,n33)(n66,279,n35)(n66,282,n37)(n66,286,n39)(n66,287,n41)(n66,288,n43)(n66,292,n45)(n66,298,n47)(n66,303,n49)(n66,305,n51)(n66,316,n49)(n66,324,n47)(n66,329,n45)(n66,342,n35)(n66,343,n33)(n66,350,n29)(n66,358,n22)(n66,361,n18)(n66,363,n16)(n66,366,n10)(n66,367,n8)(n66,368,n6)(n67,0,n4)(n67,250,n4)(n67,251,n8)(n67,252,n8)(n67,253,n12)(n67,254,n14)(n67,255,n14)(n67,257,n18)(n67,258,n18)(n67,259,n22)(n67,261,n24)(n67,263,n24)(n67,267,n27)(n67,270,n29)(n67,273,n31)(n67,276,n33)(n67,279,n35)(n67,282,n37)(n67,286,n39)(n67,287,n41)(n67,288,n43)(n67,292,n45)(n67,298,n47)(n67,303,n49)(n67,305,n51)(n67,316,n49)(n67,324,n47)(n67,329,n43)(n67,342,n33)(n67,343,n33)(n67,350,n27)(n67,358,n20)(n67,361,n16)(n67,363,n12)(n67,366,n6)(n67,367,n4)(n67,368,n4)(n67,382,n4)(n68,0,n4)(n68,250,n4)(n68,251,n8)(n68,252,n8)(n68,253,n12)(n68,254,n14)(n68,255,n14)(n68,257,n18)(n68,258,n18)(n68,259,n22)(n68,261,n24)(n68,263,n24)(n68,267,n27)(n68,270,n29)(n68,273,n31)(n68,276,n33)(n68,279,n35)(n68,282,n37)(n68,286,n39)(n68,287,n41)(n68,288,n43)(n68,292,n45)(n68,298,n47)(n68,303,n49)(n68,305,n51)(n68,316,n47)(n68,324,n39)(n68,329,n37)(n68,342,n29)(n68,343,n27)(n68,350,n22)(n68,358,n8)(n68,361,n4)(n68,363,n4)(n68,366,n4)(n68,367,n4)(n68,368,n4)(n68,382,n4)(n68,384,n4)(n69,0,n4)(n69,250,n4)(n69,251,n8)(n69,252,n8)(n69,253,n12)(n69,254,n14)(n69,255,n14)(n69,257,n18)(n69,258,n18)(n69,259,n22)(n69,261,n24)(n69,263,n24)(n69,267,n27)(n69,270,n29)(n69,273,n31)(n69,276,n33)(n69,279,n35)(n69,282,n37)(n69,286,n39)(n69,287,n41)(n69,288,n43)(n69,292,n45)(n69,298,n47)(n69,303,n49)(n69,305,n49)(n69,316,n45)(n69,324,n37)(n69,329,n35)(n69,342,n27)(n69,343,n24)(n69,350,n16)(n69,358,n4)(n69,361,n4)(n69,363,n4)(n69,366,n4)(n69,367,n4)(n69,368,n4)(n69,382,n4)(n69,384,n4)(n69,391,n4)(n70,0,n4)(n70,250,n4)(n70,251,n8)(n70,252,n8)(n70,253,n12)(n70,254,n14)(n70,255,n14)(n70,257,n18)(n70,258,n18)(n70,259,n22)(n70,261,n24)(n70,263,n24)(n70,267,n27)(n70,270,n29)(n70,273,n31)(n70,276,n33)(n70,279,n35)(n70,282,n37)(n70,286,n39)(n70,287,n41)(n70,288,n43)(n70,292,n45)(n70,298,n47)(n70,303,n47)(n70,305,n45)(n70,316,n37)(n70,324,n31)(n70,329,n27)(n70,342,n12)(n70,343,n10)(n70,350,n4)(n70,358,n4)(n70,361,n4)(n70,363,n4)(n70,366,n4)(n70,367,n4)(n70,368,n4)(n70,382,n4)(n70,384,n4)(n70,391,n4)(n70,395,n4)(n71,0,n4)(n71,250,n4)(n71,251,n8)(n71,252,n8)(n71,253,n12)(n71,254,n14)(n71,255,n14)(n71,257,n18)(n71,258,n18)(n71,259,n22)(n71,261,n24)(n71,263,n24)(n71,267,n27)(n71,270,n29)(n71,273,n31)(n71,276,n33)(n71,279,n35)(n71,282,n37)(n71,286,n39)(n71,287,n41)(n71,288,n43)(n71,292,n45)(n71,298,n47)(n71,303,n45)(n71,305,n45)(n71,316,n35)(n71,324,n29)(n71,329,n27)(n71,342,n8)(n71,343,n6)(n71,350,n4)(n71,358,n4)(n71,361,n4)(n71,363,n4)(n71,366,n4)(n71,367,n4)(n71,368,n4)(n71,382,n4)(n71,384,n4)(n71,391,n4)(n71,395,n4)(n71,405,n4)(n72,0,n4)(n72,250,n4)(n72,251,n8)(n72,252,n8)(n72,253,n12)(n72,254,n14)(n72,255,n14)(n72,257,n18)(n72,258,n18)(n72,259,n22)(n72,261,n24)(n72,263,n24)(n72,267,n27)(n72,270,n29)(n72,273,n31)(n72,276,n33)(n72,279,n35)(n72,282,n37)(n72,286,n39)(n72,287,n41)(n72,288,n43)(n72,292,n45)(n72,298,n43)(n72,303,n39)(n72,305,n37)(n72,316,n29)(n72,324,n24)(n72,329,n16)(n72,342,n4)(n72,343,n4)(n72,350,n4)(n72,358,n4)(n72,361,n4)(n72,363,n4)(n72,366,n4)(n72,367,n4)(n72,368,n4)(n72,382,n4)(n72,384,n4)(n72,391,n4)(n72,395,n4)(n72,405,n4)(n72,407,n4)(n73,0,n4)(n73,250,n4)(n73,251,n8)(n73,252,n8)(n73,253,n12)(n73,254,n14)(n73,255,n14)(n73,257,n18)(n73,258,n18)(n73,259,n22)(n73,261,n24)(n73,263,n24)(n73,267,n27)(n73,270,n29)(n73,273,n31)(n73,276,n33)(n73,279,n35)(n73,282,n37)(n73,286,n39)(n73,287,n41)(n73,288,n43)(n73,292,n39)(n73,298,n37)(n73,303,n33)(n73,305,n31)(n73,316,n24)(n73,324,n12)(n73,329,n4)(n73,342,n4)(n73,343,n4)(n73,350,n4)(n73,358,n4)(n73,361,n4)(n73,363,n4)(n73,366,n4)(n73,367,n4)(n73,368,n4)(n73,382,n4)(n73,384,n4)(n73,391,n4)(n73,395,n4)(n73,405,n4)(n73,407,n4)(n73,415,n4)(n74,0,n4)(n74,250,n4)(n74,251,n8)(n74,252,n8)(n74,253,n12)(n74,254,n14)(n74,255,n14)(n74,257,n18)(n74,258,n18)(n74,259,n22)(n74,261,n24)(n74,263,n24)(n74,267,n27)(n74,270,n29)(n74,273,n31)(n74,276,n33)(n74,279,n35)(n74,282,n37)(n74,286,n39)(n74,287,n41)(n74,288,n39)(n74,292,n37)(n74,298,n33)(n74,303,n31)(n74,305,n29)(n74,316,n18)(n74,324,n4)(n74,329,n4)(n74,342,n4)(n74,343,n4)(n74,350,n4)(n74,358,n4)(n74,361,n4)(n74,363,n4)(n74,366,n4)(n74,367,n4)(n74,368,n4)(n74,382,n4)(n74,384,n4)(n74,391,n4)(n74,395,n4)(n74,405,n4)(n74,407,n4)(n74,415,n4)(n74,423,n4)(n75,0,n4)(n75,250,n4)(n75,251,n8)(n75,252,n8)(n75,253,n12)(n75,254,n14)(n75,255,n14)(n75,257,n18)(n75,258,n18)(n75,259,n22)(n75,261,n24)(n75,263,n24)(n75,267,n27)(n75,270,n29)(n75,273,n29)(n75,276,n27)(n75,279,n24)(n75,282,n22)(n75,286,n16)(n75,287,n14)(n75,288,n12)(n75,292,n4)(n75,298,n4)(n75,303,n4)(n75,305,n4)(n75,316,n4)(n75,324,n4)(n75,329,n4)(n75,342,n4)(n75,343,n4)(n75,350,n4)(n75,358,n4)(n75,361,n4)(n75,363,n4)(n75,366,n4)(n75,367,n4)(n75,368,n4)(n75,382,n4)(n75,384,n4)(n75,391,n4)(n75,395,n4)(n75,405,n4)(n75,407,n4)(n75,415,n4)(n75,423,n4)(n75,427,n4)(n75,459,n4)(n76,0,n4)(n76,250,n4)(n76,251,n8)(n76,252,n8)(n76,253,n12)(n76,254,n14)(n76,255,n14)(n76,257,n18)(n76,258,n18)(n76,259,n22)(n76,261,n24)(n76,263,n24)(n76,267,n27)(n76,270,n29)(n76,273,n29)(n76,276,n27)(n76,279,n24)(n76,282,n20)(n76,286,n14)(n76,287,n12)(n76,288,n10)(n76,292,n4)(n76,298,n4)(n76,303,n4)(n76,305,n4)(n76,316,n4)(n76,324,n4)(n76,329,n4)(n76,342,n4)(n76,343,n4)(n76,350,n4)(n76,358,n4)(n76,361,n4)(n76,363,n4)(n76,366,n4)(n76,367,n4)(n76,368,n4)(n76,382,n4)(n76,384,n4)(n76,391,n4)(n76,395,n4)(n76,405,n4)(n76,407,n4)(n76,415,n4)(n76,423,n4)(n76,427,n4)(n76,459,n4)(n76,460,n4)(n77,0,n4)(n77,250,n4)(n77,251,n8)(n77,252,n8)(n77,253,n12)(n77,254,n14)(n77,255,n14)(n77,257,n18)(n77,258,n18)(n77,259,n22)(n77,261,n24)(n77,263,n24)(n77,267,n27)(n77,270,n22)(n77,273,n18)(n77,276,n14)(n77,279,n8)(n77,282,n4)(n77,286,n4)(n77,287,n4)(n77,288,n4)(n77,292,n4)(n77,298,n4)(n77,303,n4)(n77,305,n4)(n77,316,n4)(n77,324,n4)(n77,329,n4)(n77,342,n4)(n77,343,n4)(n77,350,n4)(n77,358,n4)(n77,361,n4)(n77,363,n4)(n77,366,n4)(n77,367,n4)(n77,368,n4)(n77,382,n4)(n77,384,n4)(n77,391,n4)(n77,395,n4)(n77,405,n4)(n77,407,n4)(n77,415,n4)(n77,423,n4)(n77,427,n4)(n77,459,n4)(n77,460,n4)(n78,0,n4)(n78,250,n4)(n78,251,n8)(n78,252,n8)(n78,253,n12)(n78,254,n14)(n78,255,n14)(n78,257,n16)(n78,258,n14)(n78,259,n12)(n78,261,n8)(n78,263,n4)(n78,267,n4)(n78,270,n4)(n78,273,n4)(n78,276,n4)(n78,279,n4)(n78,282,n4)(n78,286,n4)(n78,287,n4)(n78,288,n4)(n78,292,n4)(n78,298,n4)(n78,303,n4)(n78,305,n4)(n78,316,n4)(n78,324,n4)(n78,329,n4)(n78,342,n4)(n78,343,n4)(n78,350,n4)(n78,358,n4)(n78,361,n4)(n78,363,n4)(n78,366,n4)(n78,367,n4)(n78,368,n4)(n78,382,n4)(n78,384,n4)(n78,391,n4)(n78,395,n4)(n78,405,n4)(n78,407,n4)(n78,415,n4)(n78,423,n4)(n78,427,n4)(n78,459,n4)(n78,460,n4)(n78,470,n4)(n79,0,n4)(n79,250,n4)(n79,251,n8)(n79,252,n8)(n79,253,n12)(n79,254,n12)(n79,255,n10)(n79,257,n6)(n79,258,n4)(n79,259,n4)(n79,261,n4)(n79,263,n4)(n79,267,n4)(n79,270,n4)(n79,273,n4)(n79,276,n4)(n79,279,n4)(n79,282,n4)(n79,286,n4)(n79,287,n4)(n79,288,n4)(n79,292,n4)(n79,298,n4)(n79,303,n4)(n79,305,n4)(n79,316,n4)(n79,324,n4)(n79,329,n4)(n79,342,n4)(n79,343,n4)(n79,350,n4)(n79,358,n4)(n79,361,n4)(n79,363,n4)(n79,366,n4)(n79,367,n4)(n79,368,n4)(n79,382,n4)(n79,384,n4)(n79,391,n4)(n79,395,n4)(n79,405,n4)(n79,407,n4)(n79,415,n4)(n79,423,n4)(n79,427,n4)(n79,459,n4)(n79,460,n4)(n79,470,n4)(n79,488,n4)(n80,0,n4)(n80,250,n4)(n80,251,n6)(n80,252,n4)(n80,253,n4)(n80,254,n4)(n80,255,n4)(n80,257,n4)(n80,258,n4)(n80,259,n4)(n80,261,n4)(n80,263,n4)(n80,267,n4)(n80,270,n4)(n80,273,n4)(n80,276,n4)(n80,279,n4)(n80,282,n4)(n80,286,n4)(n80,287,n4)(n80,288,n4)(n80,292,n4)(n80,298,n4)(n80,303,n4)(n80,305,n4)(n80,316,n4)(n80,324,n4)(n80,329,n4)(n80,342,n4)(n80,343,n4)(n80,350,n4)(n80,358,n4)(n80,361,n4)(n80,363,n4)(n80,366,n4)(n80,367,n4)(n80,368,n4)(n80,382,n4)(n80,384,n4)(n80,391,n4)(n80,395,n4)(n80,405,n4)(n80,407,n4)(n80,415,n4)(n80,423,n4)(n80,427,n4)(n80,459,n4)(n80,460,n4)(n80,470,n4)(n80,488,n4)(n80,493,n4) </transitions>
      </mdd>
      <args> b[0][] </args>
      <args> b[1][] </args>
      <args> b[2][] </args>
      <args> b[3][] </args>
      <args> b[4][] </args>
      <args> b[5][] </args>
      <args> b[6][] </args>
      <args> b[7][] </args>
      <args> b[8][] </args>
      <args> b[9][] </args>
      <args> b[10][] </args>
      <args> b[11][] </args>
      <args> b[12][] </args>
      <args> b[13][] </args>
      <args> b[14][] </args>
      <args> b[15][] </args>
      <args> b[16][] </args>
      <args> b[17][] </args>
      <args> b[18][] </args>
      <args> b[19][] </args>
      <args> b[20][] </args>
      <args> b[21][] </args>
      <args> b[22][] </args>
      <args> b[23][] </args>
    </group>
    <cardinality>
      <list> b[][] </list>
      <values> 0 250 251 252 253 254 255 257 258 259 261 263 267 270 273 276 279 282 286 287 288 292 298 303 305 316 324 329 342 343 350 358 361 363 366 367 368 382 384 391 395 405 407 415 423 427 459 460 470 488 493 499 </values>
      <occurs> 12 1 2 1 2 2 1 2 1 2 2 1 1 1 1 1 1 1 1 1 1 1 1 1 1 1 1 1 2 1 1 1 1 1 1 1 1 1 1 1 1 1 1 1 1 1 2 2 1 1 1 1 </occurs>
    </cardinality>
    <lex class="symmetryBreaking">
      <list> b[0][] </list>
      <list> b[1][] </list>
      <list> b[2][] </list>
      <list> b[3][] </list>
      <list> b[4][] </list>
      <list> b[5][] </list>
      <list> b[6][] </list>
      <list> b[7][] </list>
      <list> b[8][] </list>
      <list> b[9][] </list>
      <list> b[10][] </list>
      <list> b[11][] </list>
      <list> b[12][] </list>
      <list> b[13][] </list>
      <list> b[14][] </list>
      <list> b[15][] </list>
      <list> b[16][] </list>
      <list> b[17][] </list>
      <list> b[18][] </list>
      <list> b[19][] </list>
      <list> b[20][] </list>
      <list> b[21][] </list>
      <list> b[22][] </list>
      <list> b[23][] </list>
      <operator> ge </operator>
    </lex>
    <count>
      <list> b[][0] </list>
      <values> 0 </values>
      <condition> (eq,x) </condition>
    </count>
  </constraints>
  <objectives>
    <maximize> x </maximize>
  </objectives>
</instance>
